Academic license - for non-commercial use only
Optimize a model with 96 rows, 523 columns and 2561 nonzeros
Variable types: 0 continuous, 523 integer (523 binary)
Coefficient statistics:
  Matrix range     [1e+00, 1e+00]
  Objective range  [2e-10, 5e+02]
  Bounds range     [1e+00, 1e+00]
  RHS range        [1e+00, 1e+00]
Found heuristic solution: objective 431.4236556
Presolve removed 42 rows and 0 columns
Presolve time: 0.01s
Presolved: 54 rows, 523 columns, 2118 nonzeros
Variable types: 0 continuous, 523 integer (523 binary)

Root relaxation: objective 7.423409e+02, 94 iterations, 0.00 seconds

    Nodes    |    Current Node    |     Objective Bounds      |     Work
 Expl Unexpl |  Obj  Depth IntInf | Incumbent    BestBd   Gap | It/Node Time

*    0     0               0     742.3408583  742.34086  0.00%     -    0s

Explored 0 nodes (94 simplex iterations) in 0.02 seconds
Thread count was 8 (of 8 available processors)

Solution count 2: 742.341 431.424 

Optimal solution found (tolerance 1.00e-04)
Best objective 7.423408582543e+02, best bound 7.423408582543e+02, gap 0.0000%
Obj: 742.341
